(declare-fun symvar1664423323 () Int)
(declare-fun symvar1495256789 () Int)
(declare-fun symvar2009492997 () Int)
(declare-fun symvar2036460092 () Int)
(declare-fun symvar269677803 () Int)
(declare-fun symvar1535182570 () Int)
(assert ( and ( and true ( and ( > symvar2009492997 15) ( < symvar1664423323 20))) ( not ( and ( > symvar1495256789 15) ( < symvar2036460092 20)))))
(check-sat)
(get-model)
(exit)
